15 10
2 1 4 7 6 9 7 3 5 6 8 9 2 8 6 5 2 6 9 10 3 2 6 2 5 1 8 1 7 4 3 10 5 8 3 8 7 10 4 4 4 7 8 4 1 10 7 9 9 7 5 1 10 2 6 2 5 4 7 6 8 10 5 10 8 2 2 5 3 5 1 4 5 9 6 9 1 9 2 3 7 6 8 1 2 8 1 4 5 2 2 9 8 7 8 9 10 5 2 9 4 6 4 6 10 1 10 4 3 5 1 5 6 7 8 3 3 10 9 3 1 6 1 8 4 3 7 1 3 9 3 10 7 1 6 9 4 3 8 10 7 5 3 6 10 9 7 2 4 10 
1 2 3 4 5 6 7 8 9 10 11 12 13 14 15
2 3 4 5 6 1 8 7 9 10 11 12 13 14 15
14 15 3 4 5 6 7 8 9 10 11 12 13 1 2
8 9 10 11 12 13 14 15 1 2 3 4 5 6 7 
10 11 12 13 1 2 3 4 5 6 7 8 9 14 15
13 14 15 1 2 3 4 5 6 7 8 9 10 11 12
3 4 5 6 7 8 9 1 2 10 11 12 13 14 15
1 2 3 4 5 6 7 8 12 13 14 15 9 10 11
1 2 3 4 5 6 7 8 9 15 10 11 12 13 14
7 8 9 10 11 12 13 14 15 1 2 3 4 5 6 
4 5 6 8 9 10 12 13 15 9 8 6 4 10 12
14 15 6 8 19 4 12 13 15 9 8 6 14 5 4
4 5 6 8 9 10 12 13 5 19 8 6 14 10 12
14 3 16 8 9 10 12 13 15 9 8 6 14 10 9
15 5 16 8 9 10 2 13 15 9 18 6 4 10 12
8 15 6 18 9 10 12 13 15 9 8 6 4 10 14
7 15 6 8 19 6 12 13 7 9 8 6 4 10 12
14 5 6 8 9 10 12 13 15 9 8 6 4 10 5
6 5 6 8 9 13 12 13 15 9 8 6 4 10 17
8 5 6 8 9 11 12 10 15 9 8 6 4 10 12
